c *********************************
c * Circuit generated by BenCGen
c *
c * CarrySkipAdder_85_85_85_InOut_G4T
c *
c * Ports with 1 gate(s): 25
c * Ports with 2 gate(s): 470
c * Ports with 4 gate(s): 21
c * Total gates: 516
c *********************************
p cnf 686 1735
1 258 0
-1 -258 0
1 -257 0
258 -257 0
-1 -258 257 0
1 86 -261 0
-1 86 261 0
1 -86 261 0
-1 -86 -261 0
261 257 -171 0
-261 257 171 0
261 -257 171 0
-261 -257 -171 0
257 -262 0
261 -262 0
-257 -261 262 0
86 -263 0
1 -263 0
-86 -1 263 0
-262 260 0
-263 260 0
262 263 -260 0
2 87 -265 0
-2 87 265 0
2 -87 265 0
-2 -87 -265 0
265 260 -172 0
-265 260 172 0
265 -260 172 0
-265 -260 -172 0
260 -266 0
265 -266 0
-260 -265 266 0
87 -267 0
2 -267 0
-87 -2 267 0
-266 264 0
-267 264 0
266 267 -264 0
3 88 -269 0
-3 88 269 0
3 -88 269 0
-3 -88 -269 0
269 264 -173 0
-269 264 173 0
269 -264 173 0
-269 -264 -173 0
264 -270 0
269 -270 0
-264 -269 270 0
88 -271 0
3 -271 0
-88 -3 271 0
-270 268 0
-271 268 0
270 271 -268 0
4 89 -272 0
-4 89 272 0
4 -89 272 0
-4 -89 -272 0
272 268 -174 0
-272 268 174 0
272 -268 174 0
-272 -268 -174 0
268 -273 0
272 -273 0
-268 -272 273 0
89 -274 0
4 -274 0
-89 -4 274 0
-273 259 0
-274 259 0
273 274 -259 0
261 -275 0
265 -275 0
269 -275 0
272 -275 0
-261 -265 -269 -272 275 0
274 -276 0
-274 276 0
257 -277 0
275 -277 0
-257 -275 277 0
-277 278 0
-259 278 0
277 259 -278 0
5 90 -281 0
-5 90 281 0
5 -90 281 0
-5 -90 -281 0
281 278 -175 0
-281 278 175 0
281 -278 175 0
-281 -278 -175 0
278 -282 0
281 -282 0
-278 -281 282 0
90 -283 0
5 -283 0
-90 -5 283 0
-282 280 0
-283 280 0
282 283 -280 0
6 91 -285 0
-6 91 285 0
6 -91 285 0
-6 -91 -285 0
285 280 -176 0
-285 280 176 0
285 -280 176 0
-285 -280 -176 0
280 -286 0
285 -286 0
-280 -285 286 0
91 -287 0
6 -287 0
-91 -6 287 0
-286 284 0
-287 284 0
286 287 -284 0
7 92 -289 0
-7 92 289 0
7 -92 289 0
-7 -92 -289 0
289 284 -177 0
-289 284 177 0
289 -284 177 0
-289 -284 -177 0
284 -290 0
289 -290 0
-284 -289 290 0
92 -291 0
7 -291 0
-92 -7 291 0
-290 288 0
-291 288 0
290 291 -288 0
8 93 -292 0
-8 93 292 0
8 -93 292 0
-8 -93 -292 0
292 288 -178 0
-292 288 178 0
292 -288 178 0
-292 -288 -178 0
288 -293 0
292 -293 0
-288 -292 293 0
93 -294 0
8 -294 0
-93 -8 294 0
-293 279 0
-294 279 0
293 294 -279 0
281 -295 0
285 -295 0
289 -295 0
292 -295 0
-281 -285 -289 -292 295 0
294 -296 0
-294 296 0
278 -297 0
295 -297 0
-278 -295 297 0
-297 298 0
-279 298 0
297 279 -298 0
9 94 -301 0
-9 94 301 0
9 -94 301 0
-9 -94 -301 0
301 298 -179 0
-301 298 179 0
301 -298 179 0
-301 -298 -179 0
298 -302 0
301 -302 0
-298 -301 302 0
94 -303 0
9 -303 0
-94 -9 303 0
-302 300 0
-303 300 0
302 303 -300 0
10 95 -305 0
-10 95 305 0
10 -95 305 0
-10 -95 -305 0
305 300 -180 0
-305 300 180 0
305 -300 180 0
-305 -300 -180 0
300 -306 0
305 -306 0
-300 -305 306 0
95 -307 0
10 -307 0
-95 -10 307 0
-306 304 0
-307 304 0
306 307 -304 0
11 96 -309 0
-11 96 309 0
11 -96 309 0
-11 -96 -309 0
309 304 -181 0
-309 304 181 0
309 -304 181 0
-309 -304 -181 0
304 -310 0
309 -310 0
-304 -309 310 0
96 -311 0
11 -311 0
-96 -11 311 0
-310 308 0
-311 308 0
310 311 -308 0
12 97 -312 0
-12 97 312 0
12 -97 312 0
-12 -97 -312 0
312 308 -182 0
-312 308 182 0
312 -308 182 0
-312 -308 -182 0
308 -313 0
312 -313 0
-308 -312 313 0
97 -314 0
12 -314 0
-97 -12 314 0
-313 299 0
-314 299 0
313 314 -299 0
301 -315 0
305 -315 0
309 -315 0
312 -315 0
-301 -305 -309 -312 315 0
314 -316 0
-314 316 0
298 -317 0
315 -317 0
-298 -315 317 0
-317 318 0
-299 318 0
317 299 -318 0
13 98 -321 0
-13 98 321 0
13 -98 321 0
-13 -98 -321 0
321 318 -183 0
-321 318 183 0
321 -318 183 0
-321 -318 -183 0
318 -322 0
321 -322 0
-318 -321 322 0
98 -323 0
13 -323 0
-98 -13 323 0
-322 320 0
-323 320 0
322 323 -320 0
14 99 -325 0
-14 99 325 0
14 -99 325 0
-14 -99 -325 0
325 320 -184 0
-325 320 184 0
325 -320 184 0
-325 -320 -184 0
320 -326 0
325 -326 0
-320 -325 326 0
99 -327 0
14 -327 0
-99 -14 327 0
-326 324 0
-327 324 0
326 327 -324 0
15 100 -329 0
-15 100 329 0
15 -100 329 0
-15 -100 -329 0
329 324 -185 0
-329 324 185 0
329 -324 185 0
-329 -324 -185 0
324 -330 0
329 -330 0
-324 -329 330 0
100 -331 0
15 -331 0
-100 -15 331 0
-330 328 0
-331 328 0
330 331 -328 0
16 101 -332 0
-16 101 332 0
16 -101 332 0
-16 -101 -332 0
332 328 -186 0
-332 328 186 0
332 -328 186 0
-332 -328 -186 0
328 -333 0
332 -333 0
-328 -332 333 0
101 -334 0
16 -334 0
-101 -16 334 0
-333 319 0
-334 319 0
333 334 -319 0
321 -335 0
325 -335 0
329 -335 0
332 -335 0
-321 -325 -329 -332 335 0
334 -336 0
-334 336 0
318 -337 0
335 -337 0
-318 -335 337 0
-337 338 0
-319 338 0
337 319 -338 0
17 102 -341 0
-17 102 341 0
17 -102 341 0
-17 -102 -341 0
341 338 -187 0
-341 338 187 0
341 -338 187 0
-341 -338 -187 0
338 -342 0
341 -342 0
-338 -341 342 0
102 -343 0
17 -343 0
-102 -17 343 0
-342 340 0
-343 340 0
342 343 -340 0
18 103 -345 0
-18 103 345 0
18 -103 345 0
-18 -103 -345 0
345 340 -188 0
-345 340 188 0
345 -340 188 0
-345 -340 -188 0
340 -346 0
345 -346 0
-340 -345 346 0
103 -347 0
18 -347 0
-103 -18 347 0
-346 344 0
-347 344 0
346 347 -344 0
19 104 -349 0
-19 104 349 0
19 -104 349 0
-19 -104 -349 0
349 344 -189 0
-349 344 189 0
349 -344 189 0
-349 -344 -189 0
344 -350 0
349 -350 0
-344 -349 350 0
104 -351 0
19 -351 0
-104 -19 351 0
-350 348 0
-351 348 0
350 351 -348 0
20 105 -352 0
-20 105 352 0
20 -105 352 0
-20 -105 -352 0
352 348 -190 0
-352 348 190 0
352 -348 190 0
-352 -348 -190 0
348 -353 0
352 -353 0
-348 -352 353 0
105 -354 0
20 -354 0
-105 -20 354 0
-353 339 0
-354 339 0
353 354 -339 0
341 -355 0
345 -355 0
349 -355 0
352 -355 0
-341 -345 -349 -352 355 0
354 -356 0
-354 356 0
338 -357 0
355 -357 0
-338 -355 357 0
-357 358 0
-339 358 0
357 339 -358 0
21 106 -361 0
-21 106 361 0
21 -106 361 0
-21 -106 -361 0
361 358 -191 0
-361 358 191 0
361 -358 191 0
-361 -358 -191 0
358 -362 0
361 -362 0
-358 -361 362 0
106 -363 0
21 -363 0
-106 -21 363 0
-362 360 0
-363 360 0
362 363 -360 0
22 107 -365 0
-22 107 365 0
22 -107 365 0
-22 -107 -365 0
365 360 -192 0
-365 360 192 0
365 -360 192 0
-365 -360 -192 0
360 -366 0
365 -366 0
-360 -365 366 0
107 -367 0
22 -367 0
-107 -22 367 0
-366 364 0
-367 364 0
366 367 -364 0
23 108 -369 0
-23 108 369 0
23 -108 369 0
-23 -108 -369 0
369 364 -193 0
-369 364 193 0
369 -364 193 0
-369 -364 -193 0
364 -370 0
369 -370 0
-364 -369 370 0
108 -371 0
23 -371 0
-108 -23 371 0
-370 368 0
-371 368 0
370 371 -368 0
24 109 -372 0
-24 109 372 0
24 -109 372 0
-24 -109 -372 0
372 368 -194 0
-372 368 194 0
372 -368 194 0
-372 -368 -194 0
368 -373 0
372 -373 0
-368 -372 373 0
109 -374 0
24 -374 0
-109 -24 374 0
-373 359 0
-374 359 0
373 374 -359 0
361 -375 0
365 -375 0
369 -375 0
372 -375 0
-361 -365 -369 -372 375 0
374 -376 0
-374 376 0
358 -377 0
375 -377 0
-358 -375 377 0
-377 378 0
-359 378 0
377 359 -378 0
25 110 -381 0
-25 110 381 0
25 -110 381 0
-25 -110 -381 0
381 378 -195 0
-381 378 195 0
381 -378 195 0
-381 -378 -195 0
378 -382 0
381 -382 0
-378 -381 382 0
110 -383 0
25 -383 0
-110 -25 383 0
-382 380 0
-383 380 0
382 383 -380 0
26 111 -385 0
-26 111 385 0
26 -111 385 0
-26 -111 -385 0
385 380 -196 0
-385 380 196 0
385 -380 196 0
-385 -380 -196 0
380 -386 0
385 -386 0
-380 -385 386 0
111 -387 0
26 -387 0
-111 -26 387 0
-386 384 0
-387 384 0
386 387 -384 0
27 112 -389 0
-27 112 389 0
27 -112 389 0
-27 -112 -389 0
389 384 -197 0
-389 384 197 0
389 -384 197 0
-389 -384 -197 0
384 -390 0
389 -390 0
-384 -389 390 0
112 -391 0
27 -391 0
-112 -27 391 0
-390 388 0
-391 388 0
390 391 -388 0
28 113 -392 0
-28 113 392 0
28 -113 392 0
-28 -113 -392 0
392 388 -198 0
-392 388 198 0
392 -388 198 0
-392 -388 -198 0
388 -393 0
392 -393 0
-388 -392 393 0
113 -394 0
28 -394 0
-113 -28 394 0
-393 379 0
-394 379 0
393 394 -379 0
381 -395 0
385 -395 0
389 -395 0
392 -395 0
-381 -385 -389 -392 395 0
394 -396 0
-394 396 0
378 -397 0
395 -397 0
-378 -395 397 0
-397 398 0
-379 398 0
397 379 -398 0
29 114 -401 0
-29 114 401 0
29 -114 401 0
-29 -114 -401 0
401 398 -199 0
-401 398 199 0
401 -398 199 0
-401 -398 -199 0
398 -402 0
401 -402 0
-398 -401 402 0
114 -403 0
29 -403 0
-114 -29 403 0
-402 400 0
-403 400 0
402 403 -400 0
30 115 -405 0
-30 115 405 0
30 -115 405 0
-30 -115 -405 0
405 400 -200 0
-405 400 200 0
405 -400 200 0
-405 -400 -200 0
400 -406 0
405 -406 0
-400 -405 406 0
115 -407 0
30 -407 0
-115 -30 407 0
-406 404 0
-407 404 0
406 407 -404 0
31 116 -409 0
-31 116 409 0
31 -116 409 0
-31 -116 -409 0
409 404 -201 0
-409 404 201 0
409 -404 201 0
-409 -404 -201 0
404 -410 0
409 -410 0
-404 -409 410 0
116 -411 0
31 -411 0
-116 -31 411 0
-410 408 0
-411 408 0
410 411 -408 0
32 117 -412 0
-32 117 412 0
32 -117 412 0
-32 -117 -412 0
412 408 -202 0
-412 408 202 0
412 -408 202 0
-412 -408 -202 0
408 -413 0
412 -413 0
-408 -412 413 0
117 -414 0
32 -414 0
-117 -32 414 0
-413 399 0
-414 399 0
413 414 -399 0
401 -415 0
405 -415 0
409 -415 0
412 -415 0
-401 -405 -409 -412 415 0
414 -416 0
-414 416 0
398 -417 0
415 -417 0
-398 -415 417 0
-417 418 0
-399 418 0
417 399 -418 0
33 118 -421 0
-33 118 421 0
33 -118 421 0
-33 -118 -421 0
421 418 -203 0
-421 418 203 0
421 -418 203 0
-421 -418 -203 0
418 -422 0
421 -422 0
-418 -421 422 0
118 -423 0
33 -423 0
-118 -33 423 0
-422 420 0
-423 420 0
422 423 -420 0
34 119 -425 0
-34 119 425 0
34 -119 425 0
-34 -119 -425 0
425 420 -204 0
-425 420 204 0
425 -420 204 0
-425 -420 -204 0
420 -426 0
425 -426 0
-420 -425 426 0
119 -427 0
34 -427 0
-119 -34 427 0
-426 424 0
-427 424 0
426 427 -424 0
35 120 -429 0
-35 120 429 0
35 -120 429 0
-35 -120 -429 0
429 424 -205 0
-429 424 205 0
429 -424 205 0
-429 -424 -205 0
424 -430 0
429 -430 0
-424 -429 430 0
120 -431 0
35 -431 0
-120 -35 431 0
-430 428 0
-431 428 0
430 431 -428 0
36 121 -432 0
-36 121 432 0
36 -121 432 0
-36 -121 -432 0
432 428 -206 0
-432 428 206 0
432 -428 206 0
-432 -428 -206 0
428 -433 0
432 -433 0
-428 -432 433 0
121 -434 0
36 -434 0
-121 -36 434 0
-433 419 0
-434 419 0
433 434 -419 0
421 -435 0
425 -435 0
429 -435 0
432 -435 0
-421 -425 -429 -432 435 0
434 -436 0
-434 436 0
418 -437 0
435 -437 0
-418 -435 437 0
-437 438 0
-419 438 0
437 419 -438 0
37 122 -441 0
-37 122 441 0
37 -122 441 0
-37 -122 -441 0
441 438 -207 0
-441 438 207 0
441 -438 207 0
-441 -438 -207 0
438 -442 0
441 -442 0
-438 -441 442 0
122 -443 0
37 -443 0
-122 -37 443 0
-442 440 0
-443 440 0
442 443 -440 0
38 123 -445 0
-38 123 445 0
38 -123 445 0
-38 -123 -445 0
445 440 -208 0
-445 440 208 0
445 -440 208 0
-445 -440 -208 0
440 -446 0
445 -446 0
-440 -445 446 0
123 -447 0
38 -447 0
-123 -38 447 0
-446 444 0
-447 444 0
446 447 -444 0
39 124 -449 0
-39 124 449 0
39 -124 449 0
-39 -124 -449 0
449 444 -209 0
-449 444 209 0
449 -444 209 0
-449 -444 -209 0
444 -450 0
449 -450 0
-444 -449 450 0
124 -451 0
39 -451 0
-124 -39 451 0
-450 448 0
-451 448 0
450 451 -448 0
40 125 -452 0
-40 125 452 0
40 -125 452 0
-40 -125 -452 0
452 448 -210 0
-452 448 210 0
452 -448 210 0
-452 -448 -210 0
448 -453 0
452 -453 0
-448 -452 453 0
125 -454 0
40 -454 0
-125 -40 454 0
-453 439 0
-454 439 0
453 454 -439 0
441 -455 0
445 -455 0
449 -455 0
452 -455 0
-441 -445 -449 -452 455 0
454 -456 0
-454 456 0
438 -457 0
455 -457 0
-438 -455 457 0
-457 458 0
-439 458 0
457 439 -458 0
41 126 -461 0
-41 126 461 0
41 -126 461 0
-41 -126 -461 0
461 458 -211 0
-461 458 211 0
461 -458 211 0
-461 -458 -211 0
458 -462 0
461 -462 0
-458 -461 462 0
126 -463 0
41 -463 0
-126 -41 463 0
-462 460 0
-463 460 0
462 463 -460 0
42 127 -465 0
-42 127 465 0
42 -127 465 0
-42 -127 -465 0
465 460 -212 0
-465 460 212 0
465 -460 212 0
-465 -460 -212 0
460 -466 0
465 -466 0
-460 -465 466 0
127 -467 0
42 -467 0
-127 -42 467 0
-466 464 0
-467 464 0
466 467 -464 0
43 128 -469 0
-43 128 469 0
43 -128 469 0
-43 -128 -469 0
469 464 -213 0
-469 464 213 0
469 -464 213 0
-469 -464 -213 0
464 -470 0
469 -470 0
-464 -469 470 0
128 -471 0
43 -471 0
-128 -43 471 0
-470 468 0
-471 468 0
470 471 -468 0
44 129 -472 0
-44 129 472 0
44 -129 472 0
-44 -129 -472 0
472 468 -214 0
-472 468 214 0
472 -468 214 0
-472 -468 -214 0
468 -473 0
472 -473 0
-468 -472 473 0
129 -474 0
44 -474 0
-129 -44 474 0
-473 459 0
-474 459 0
473 474 -459 0
461 -475 0
465 -475 0
469 -475 0
472 -475 0
-461 -465 -469 -472 475 0
474 -476 0
-474 476 0
458 -477 0
475 -477 0
-458 -475 477 0
-477 478 0
-459 478 0
477 459 -478 0
45 130 -481 0
-45 130 481 0
45 -130 481 0
-45 -130 -481 0
481 478 -215 0
-481 478 215 0
481 -478 215 0
-481 -478 -215 0
478 -482 0
481 -482 0
-478 -481 482 0
130 -483 0
45 -483 0
-130 -45 483 0
-482 480 0
-483 480 0
482 483 -480 0
46 131 -485 0
-46 131 485 0
46 -131 485 0
-46 -131 -485 0
485 480 -216 0
-485 480 216 0
485 -480 216 0
-485 -480 -216 0
480 -486 0
485 -486 0
-480 -485 486 0
131 -487 0
46 -487 0
-131 -46 487 0
-486 484 0
-487 484 0
486 487 -484 0
47 132 -489 0
-47 132 489 0
47 -132 489 0
-47 -132 -489 0
489 484 -217 0
-489 484 217 0
489 -484 217 0
-489 -484 -217 0
484 -490 0
489 -490 0
-484 -489 490 0
132 -491 0
47 -491 0
-132 -47 491 0
-490 488 0
-491 488 0
490 491 -488 0
48 133 -492 0
-48 133 492 0
48 -133 492 0
-48 -133 -492 0
492 488 -218 0
-492 488 218 0
492 -488 218 0
-492 -488 -218 0
488 -493 0
492 -493 0
-488 -492 493 0
133 -494 0
48 -494 0
-133 -48 494 0
-493 479 0
-494 479 0
493 494 -479 0
481 -495 0
485 -495 0
489 -495 0
492 -495 0
-481 -485 -489 -492 495 0
494 -496 0
-494 496 0
478 -497 0
495 -497 0
-478 -495 497 0
-497 498 0
-479 498 0
497 479 -498 0
49 134 -501 0
-49 134 501 0
49 -134 501 0
-49 -134 -501 0
501 498 -219 0
-501 498 219 0
501 -498 219 0
-501 -498 -219 0
498 -502 0
501 -502 0
-498 -501 502 0
134 -503 0
49 -503 0
-134 -49 503 0
-502 500 0
-503 500 0
502 503 -500 0
50 135 -505 0
-50 135 505 0
50 -135 505 0
-50 -135 -505 0
505 500 -220 0
-505 500 220 0
505 -500 220 0
-505 -500 -220 0
500 -506 0
505 -506 0
-500 -505 506 0
135 -507 0
50 -507 0
-135 -50 507 0
-506 504 0
-507 504 0
506 507 -504 0
51 136 -509 0
-51 136 509 0
51 -136 509 0
-51 -136 -509 0
509 504 -221 0
-509 504 221 0
509 -504 221 0
-509 -504 -221 0
504 -510 0
509 -510 0
-504 -509 510 0
136 -511 0
51 -511 0
-136 -51 511 0
-510 508 0
-511 508 0
510 511 -508 0
52 137 -512 0
-52 137 512 0
52 -137 512 0
-52 -137 -512 0
512 508 -222 0
-512 508 222 0
512 -508 222 0
-512 -508 -222 0
508 -513 0
512 -513 0
-508 -512 513 0
137 -514 0
52 -514 0
-137 -52 514 0
-513 499 0
-514 499 0
513 514 -499 0
501 -515 0
505 -515 0
509 -515 0
512 -515 0
-501 -505 -509 -512 515 0
514 -516 0
-514 516 0
498 -517 0
515 -517 0
-498 -515 517 0
-517 518 0
-499 518 0
517 499 -518 0
53 138 -521 0
-53 138 521 0
53 -138 521 0
-53 -138 -521 0
521 518 -223 0
-521 518 223 0
521 -518 223 0
-521 -518 -223 0
518 -522 0
521 -522 0
-518 -521 522 0
138 -523 0
53 -523 0
-138 -53 523 0
-522 520 0
-523 520 0
522 523 -520 0
54 139 -525 0
-54 139 525 0
54 -139 525 0
-54 -139 -525 0
525 520 -224 0
-525 520 224 0
525 -520 224 0
-525 -520 -224 0
520 -526 0
525 -526 0
-520 -525 526 0
139 -527 0
54 -527 0
-139 -54 527 0
-526 524 0
-527 524 0
526 527 -524 0
55 140 -529 0
-55 140 529 0
55 -140 529 0
-55 -140 -529 0
529 524 -225 0
-529 524 225 0
529 -524 225 0
-529 -524 -225 0
524 -530 0
529 -530 0
-524 -529 530 0
140 -531 0
55 -531 0
-140 -55 531 0
-530 528 0
-531 528 0
530 531 -528 0
56 141 -532 0
-56 141 532 0
56 -141 532 0
-56 -141 -532 0
532 528 -226 0
-532 528 226 0
532 -528 226 0
-532 -528 -226 0
528 -533 0
532 -533 0
-528 -532 533 0
141 -534 0
56 -534 0
-141 -56 534 0
-533 519 0
-534 519 0
533 534 -519 0
521 -535 0
525 -535 0
529 -535 0
532 -535 0
-521 -525 -529 -532 535 0
534 -536 0
-534 536 0
518 -537 0
535 -537 0
-518 -535 537 0
-537 538 0
-519 538 0
537 519 -538 0
57 142 -541 0
-57 142 541 0
57 -142 541 0
-57 -142 -541 0
541 538 -227 0
-541 538 227 0
541 -538 227 0
-541 -538 -227 0
538 -542 0
541 -542 0
-538 -541 542 0
142 -543 0
57 -543 0
-142 -57 543 0
-542 540 0
-543 540 0
542 543 -540 0
58 143 -545 0
-58 143 545 0
58 -143 545 0
-58 -143 -545 0
545 540 -228 0
-545 540 228 0
545 -540 228 0
-545 -540 -228 0
540 -546 0
545 -546 0
-540 -545 546 0
143 -547 0
58 -547 0
-143 -58 547 0
-546 544 0
-547 544 0
546 547 -544 0
59 144 -549 0
-59 144 549 0
59 -144 549 0
-59 -144 -549 0
549 544 -229 0
-549 544 229 0
549 -544 229 0
-549 -544 -229 0
544 -550 0
549 -550 0
-544 -549 550 0
144 -551 0
59 -551 0
-144 -59 551 0
-550 548 0
-551 548 0
550 551 -548 0
60 145 -552 0
-60 145 552 0
60 -145 552 0
-60 -145 -552 0
552 548 -230 0
-552 548 230 0
552 -548 230 0
-552 -548 -230 0
548 -553 0
552 -553 0
-548 -552 553 0
145 -554 0
60 -554 0
-145 -60 554 0
-553 539 0
-554 539 0
553 554 -539 0
541 -555 0
545 -555 0
549 -555 0
552 -555 0
-541 -545 -549 -552 555 0
554 -556 0
-554 556 0
538 -557 0
555 -557 0
-538 -555 557 0
-557 558 0
-539 558 0
557 539 -558 0
61 146 -561 0
-61 146 561 0
61 -146 561 0
-61 -146 -561 0
561 558 -231 0
-561 558 231 0
561 -558 231 0
-561 -558 -231 0
558 -562 0
561 -562 0
-558 -561 562 0
146 -563 0
61 -563 0
-146 -61 563 0
-562 560 0
-563 560 0
562 563 -560 0
62 147 -565 0
-62 147 565 0
62 -147 565 0
-62 -147 -565 0
565 560 -232 0
-565 560 232 0
565 -560 232 0
-565 -560 -232 0
560 -566 0
565 -566 0
-560 -565 566 0
147 -567 0
62 -567 0
-147 -62 567 0
-566 564 0
-567 564 0
566 567 -564 0
63 148 -569 0
-63 148 569 0
63 -148 569 0
-63 -148 -569 0
569 564 -233 0
-569 564 233 0
569 -564 233 0
-569 -564 -233 0
564 -570 0
569 -570 0
-564 -569 570 0
148 -571 0
63 -571 0
-148 -63 571 0
-570 568 0
-571 568 0
570 571 -568 0
64 149 -572 0
-64 149 572 0
64 -149 572 0
-64 -149 -572 0
572 568 -234 0
-572 568 234 0
572 -568 234 0
-572 -568 -234 0
568 -573 0
572 -573 0
-568 -572 573 0
149 -574 0
64 -574 0
-149 -64 574 0
-573 559 0
-574 559 0
573 574 -559 0
561 -575 0
565 -575 0
569 -575 0
572 -575 0
-561 -565 -569 -572 575 0
574 -576 0
-574 576 0
558 -577 0
575 -577 0
-558 -575 577 0
-577 578 0
-559 578 0
577 559 -578 0
65 150 -581 0
-65 150 581 0
65 -150 581 0
-65 -150 -581 0
581 578 -235 0
-581 578 235 0
581 -578 235 0
-581 -578 -235 0
578 -582 0
581 -582 0
-578 -581 582 0
150 -583 0
65 -583 0
-150 -65 583 0
-582 580 0
-583 580 0
582 583 -580 0
66 151 -585 0
-66 151 585 0
66 -151 585 0
-66 -151 -585 0
585 580 -236 0
-585 580 236 0
585 -580 236 0
-585 -580 -236 0
580 -586 0
585 -586 0
-580 -585 586 0
151 -587 0
66 -587 0
-151 -66 587 0
-586 584 0
-587 584 0
586 587 -584 0
67 152 -589 0
-67 152 589 0
67 -152 589 0
-67 -152 -589 0
589 584 -237 0
-589 584 237 0
589 -584 237 0
-589 -584 -237 0
584 -590 0
589 -590 0
-584 -589 590 0
152 -591 0
67 -591 0
-152 -67 591 0
-590 588 0
-591 588 0
590 591 -588 0
68 153 -592 0
-68 153 592 0
68 -153 592 0
-68 -153 -592 0
592 588 -238 0
-592 588 238 0
592 -588 238 0
-592 -588 -238 0
588 -593 0
592 -593 0
-588 -592 593 0
153 -594 0
68 -594 0
-153 -68 594 0
-593 579 0
-594 579 0
593 594 -579 0
581 -595 0
585 -595 0
589 -595 0
592 -595 0
-581 -585 -589 -592 595 0
594 -596 0
-594 596 0
578 -597 0
595 -597 0
-578 -595 597 0
-597 598 0
-579 598 0
597 579 -598 0
69 154 -601 0
-69 154 601 0
69 -154 601 0
-69 -154 -601 0
601 598 -239 0
-601 598 239 0
601 -598 239 0
-601 -598 -239 0
598 -602 0
601 -602 0
-598 -601 602 0
154 -603 0
69 -603 0
-154 -69 603 0
-602 600 0
-603 600 0
602 603 -600 0
70 155 -605 0
-70 155 605 0
70 -155 605 0
-70 -155 -605 0
605 600 -240 0
-605 600 240 0
605 -600 240 0
-605 -600 -240 0
600 -606 0
605 -606 0
-600 -605 606 0
155 -607 0
70 -607 0
-155 -70 607 0
-606 604 0
-607 604 0
606 607 -604 0
71 156 -609 0
-71 156 609 0
71 -156 609 0
-71 -156 -609 0
609 604 -241 0
-609 604 241 0
609 -604 241 0
-609 -604 -241 0
604 -610 0
609 -610 0
-604 -609 610 0
156 -611 0
71 -611 0
-156 -71 611 0
-610 608 0
-611 608 0
610 611 -608 0
72 157 -612 0
-72 157 612 0
72 -157 612 0
-72 -157 -612 0
612 608 -242 0
-612 608 242 0
612 -608 242 0
-612 -608 -242 0
608 -613 0
612 -613 0
-608 -612 613 0
157 -614 0
72 -614 0
-157 -72 614 0
-613 599 0
-614 599 0
613 614 -599 0
601 -615 0
605 -615 0
609 -615 0
612 -615 0
-601 -605 -609 -612 615 0
614 -616 0
-614 616 0
598 -617 0
615 -617 0
-598 -615 617 0
-617 618 0
-599 618 0
617 599 -618 0
73 158 -621 0
-73 158 621 0
73 -158 621 0
-73 -158 -621 0
621 618 -243 0
-621 618 243 0
621 -618 243 0
-621 -618 -243 0
618 -622 0
621 -622 0
-618 -621 622 0
158 -623 0
73 -623 0
-158 -73 623 0
-622 620 0
-623 620 0
622 623 -620 0
74 159 -625 0
-74 159 625 0
74 -159 625 0
-74 -159 -625 0
625 620 -244 0
-625 620 244 0
625 -620 244 0
-625 -620 -244 0
620 -626 0
625 -626 0
-620 -625 626 0
159 -627 0
74 -627 0
-159 -74 627 0
-626 624 0
-627 624 0
626 627 -624 0
75 160 -629 0
-75 160 629 0
75 -160 629 0
-75 -160 -629 0
629 624 -245 0
-629 624 245 0
629 -624 245 0
-629 -624 -245 0
624 -630 0
629 -630 0
-624 -629 630 0
160 -631 0
75 -631 0
-160 -75 631 0
-630 628 0
-631 628 0
630 631 -628 0
76 161 -632 0
-76 161 632 0
76 -161 632 0
-76 -161 -632 0
632 628 -246 0
-632 628 246 0
632 -628 246 0
-632 -628 -246 0
628 -633 0
632 -633 0
-628 -632 633 0
161 -634 0
76 -634 0
-161 -76 634 0
-633 619 0
-634 619 0
633 634 -619 0
621 -635 0
625 -635 0
629 -635 0
632 -635 0
-621 -625 -629 -632 635 0
634 -636 0
-634 636 0
618 -637 0
635 -637 0
-618 -635 637 0
-637 638 0
-619 638 0
637 619 -638 0
77 162 -641 0
-77 162 641 0
77 -162 641 0
-77 -162 -641 0
641 638 -247 0
-641 638 247 0
641 -638 247 0
-641 -638 -247 0
638 -642 0
641 -642 0
-638 -641 642 0
162 -643 0
77 -643 0
-162 -77 643 0
-642 640 0
-643 640 0
642 643 -640 0
78 163 -645 0
-78 163 645 0
78 -163 645 0
-78 -163 -645 0
645 640 -248 0
-645 640 248 0
645 -640 248 0
-645 -640 -248 0
640 -646 0
645 -646 0
-640 -645 646 0
163 -647 0
78 -647 0
-163 -78 647 0
-646 644 0
-647 644 0
646 647 -644 0
79 164 -649 0
-79 164 649 0
79 -164 649 0
-79 -164 -649 0
649 644 -249 0
-649 644 249 0
649 -644 249 0
-649 -644 -249 0
644 -650 0
649 -650 0
-644 -649 650 0
164 -651 0
79 -651 0
-164 -79 651 0
-650 648 0
-651 648 0
650 651 -648 0
80 165 -652 0
-80 165 652 0
80 -165 652 0
-80 -165 -652 0
652 648 -250 0
-652 648 250 0
652 -648 250 0
-652 -648 -250 0
648 -653 0
652 -653 0
-648 -652 653 0
165 -654 0
80 -654 0
-165 -80 654 0
-653 639 0
-654 639 0
653 654 -639 0
641 -655 0
645 -655 0
649 -655 0
652 -655 0
-641 -645 -649 -652 655 0
654 -656 0
-654 656 0
638 -657 0
655 -657 0
-638 -655 657 0
-657 658 0
-639 658 0
657 639 -658 0
81 166 -661 0
-81 166 661 0
81 -166 661 0
-81 -166 -661 0
661 658 -251 0
-661 658 251 0
661 -658 251 0
-661 -658 -251 0
658 -662 0
661 -662 0
-658 -661 662 0
166 -663 0
81 -663 0
-166 -81 663 0
-662 660 0
-663 660 0
662 663 -660 0
82 167 -665 0
-82 167 665 0
82 -167 665 0
-82 -167 -665 0
665 660 -252 0
-665 660 252 0
665 -660 252 0
-665 -660 -252 0
660 -666 0
665 -666 0
-660 -665 666 0
167 -667 0
82 -667 0
-167 -82 667 0
-666 664 0
-667 664 0
666 667 -664 0
83 168 -669 0
-83 168 669 0
83 -168 669 0
-83 -168 -669 0
669 664 -253 0
-669 664 253 0
669 -664 253 0
-669 -664 -253 0
664 -670 0
669 -670 0
-664 -669 670 0
168 -671 0
83 -671 0
-168 -83 671 0
-670 668 0
-671 668 0
670 671 -668 0
84 169 -672 0
-84 169 672 0
84 -169 672 0
-84 -169 -672 0
672 668 -254 0
-672 668 254 0
672 -668 254 0
-672 -668 -254 0
668 -673 0
672 -673 0
-668 -672 673 0
169 -674 0
84 -674 0
-169 -84 674 0
-673 659 0
-674 659 0
673 674 -659 0
661 -675 0
665 -675 0
669 -675 0
672 -675 0
-661 -665 -669 -672 675 0
674 -676 0
-674 676 0
658 -677 0
675 -677 0
-658 -675 677 0
-677 678 0
-659 678 0
677 659 -678 0
85 170 -680 0
-85 170 680 0
85 -170 680 0
-85 -170 -680 0
680 678 -255 0
-680 678 255 0
680 -678 255 0
-680 -678 -255 0
678 -681 0
680 -681 0
-678 -680 681 0
170 -682 0
85 -682 0
-170 -85 682 0
-681 679 0
-682 679 0
681 682 -679 0
680 -683 0
-680 683 0
682 -684 0
-682 684 0
678 -685 0
683 -685 0
-678 -683 685 0
-685 686 0
-679 686 0
685 679 -686 0
686 -256 0
-686 256 0
